[$Version]
update_info=mailtransports.upd:initial-kmail-migration,kmail.upd:1,kmail.upd:4,kmail.upd:5,kmail.upd:6,kmail.upd:7,kmail.upd:8,kmail.upd:9,kmail.upd:3.1-update-identities,kmail.upd:3.1-use-identity-uoids,kmail.upd:3.1-new-mail-notification,kmail.upd:3.2-update-loop-on-goto-unread-settings,kmail.upd:3.1.4-dont-use-UOID-0-for-any-identity,kmail.upd:3.2-misc,kmail.upd:3.2-moves,kmail.upd:3.3-use-ID-for-accounts,kmail.upd:3.3-update-filter-rules,kmail.upd:3.3-move-identities-to-own-file,kmail.upd:3.3-aegypten-kpgprc-to-kmailrc,kmail.upd:3.3-misc,kmail.upd:3.3b1-misc,kmail.upd:3.4,kmail.upd:3.4a,kmail.upd:3.4b,kmail.upd:3.4.1,kmail.upd:3.5.4,kmail.upd:3.5.7-imap-flag-migration,kmail.upd:4.0-misc,kmail.upd:4.2

[Composer]
pref-charsets=us-ascii,iso-8859-1,locale,utf-8

[FavoriteFolderView]
IconSize=22
SortingPolicy=1
ToolTipDisplayPolicy=0

[Folder-drafts]
Compactable=true
ContentsType=0
ExpireAction=Delete
ExpireMessages=false
ExpireToFolder=
FolderSize=-1
Id=1320373537
IgnoreNewMail=false
MailingListArchiveAddress=
MailingListEnabled=false
MailingListFeatures=0
MailingListHandler=0
MailingListHelpAddress=
MailingListId=
MailingListPostingAddress=
MailingListSubscribeAddress=
MailingListUnsubscribeAddress=
MainFolderViewItemDnDSortingKey=-1
MainFolderViewItemIsExpanded=false
MainFolderViewItemIsSelected=false
NormalIconPath=
PutRepliesInSameFolder=false
ReadExpireAge=3
ReadExpireUnits=3
SystemLabel=
TotalMsgs=0
UnreadExpireAge=12
UnreadExpireUnits=0
UnreadIconPath=
UnreadMsgs=0
UseCustomIcons=false
UseDefaultIdentity=true
WhoField=

[Folder-inbox]
Compactable=true
ContentsType=0
ExpireAction=Delete
ExpireMessages=false
ExpireToFolder=
FolderSize=-1
Id=1627498292
IgnoreNewMail=false
MailingListArchiveAddress=
MailingListEnabled=false
MailingListFeatures=0
MailingListHandler=0
MailingListHelpAddress=
MailingListId=
MailingListPostingAddress=
MailingListSubscribeAddress=
MailingListUnsubscribeAddress=
NormalIconPath=
PutRepliesInSameFolder=false
ReadExpireAge=3
ReadExpireUnits=3
SystemLabel=
TotalMsgs=0
UnreadExpireAge=12
UnreadExpireUnits=0
UnreadIconPath=
UnreadMsgs=0
UseCustomIcons=false
UseDefaultIdentity=true
WhoField=

[Folder-outbox]
Compactable=true
ContentsType=0
ExpireAction=Delete
ExpireMessages=false
ExpireToFolder=
FolderSize=-1
Id=755726035
IgnoreNewMail=false
MailingListArchiveAddress=
MailingListEnabled=false
MailingListFeatures=0
MailingListHandler=0
MailingListHelpAddress=
MailingListId=
MailingListPostingAddress=
MailingListSubscribeAddress=
MailingListUnsubscribeAddress=
MainFolderViewItemDnDSortingKey=-1
MainFolderViewItemIsExpanded=false
MainFolderViewItemIsSelected=false
NormalIconPath=
PutRepliesInSameFolder=false
ReadExpireAge=3
ReadExpireUnits=3
SystemLabel=
TotalMsgs=0
UnreadExpireAge=12
UnreadExpireUnits=0
UnreadIconPath=
UnreadMsgs=0
UseCustomIcons=false
UseDefaultIdentity=true
WhoField=

[Folder-sent-mail]
Compactable=true
ContentsType=0
ExpireAction=Delete
ExpireMessages=false
ExpireToFolder=
FolderSize=-1
Id=2022299695
IgnoreNewMail=false
MailingListArchiveAddress=
MailingListEnabled=false
MailingListFeatures=0
MailingListHandler=0
MailingListHelpAddress=
MailingListId=
MailingListPostingAddress=
MailingListSubscribeAddress=
MailingListUnsubscribeAddress=
MainFolderViewItemDnDSortingKey=-1
MainFolderViewItemIsExpanded=false
MainFolderViewItemIsSelected=false
NormalIconPath=
PutRepliesInSameFolder=false
ReadExpireAge=3
ReadExpireUnits=3
SystemLabel=
TotalMsgs=0
UnreadExpireAge=12
UnreadExpireUnits=0
UnreadIconPath=
UnreadMsgs=0
UseCustomIcons=false
UseDefaultIdentity=true
WhoField=

[Folder-templates]
Compactable=true
ContentsType=0
ExpireAction=Delete
ExpireMessages=false
ExpireToFolder=
FolderSize=-1
Id=36185223
IgnoreNewMail=false
MailingListArchiveAddress=
MailingListEnabled=false
MailingListFeatures=0
MailingListHandler=0
MailingListHelpAddress=
MailingListId=
MailingListPostingAddress=
MailingListSubscribeAddress=
MailingListUnsubscribeAddress=
MainFolderViewItemDnDSortingKey=-1
MainFolderViewItemIsExpanded=false
MainFolderViewItemIsSelected=false
NormalIconPath=
PutRepliesInSameFolder=false
ReadExpireAge=3
ReadExpireUnits=3
SystemLabel=
TotalMsgs=0
UnreadExpireAge=12
UnreadExpireUnits=0
UnreadIconPath=
UnreadMsgs=0
UseCustomIcons=false
UseDefaultIdentity=true
WhoField=

[Folder-trash]
Compactable=true
ContentsType=0
ExpireAction=Delete
ExpireMessages=false
ExpireToFolder=
FolderSize=-1
Id=112519656
IgnoreNewMail=false
MailingListArchiveAddress=
MailingListEnabled=false
MailingListFeatures=0
MailingListHandler=0
MailingListHelpAddress=
MailingListId=
MailingListPostingAddress=
MailingListSubscribeAddress=
MailingListUnsubscribeAddress=
MainFolderViewItemDnDSortingKey=-1
MainFolderViewItemIsExpanded=false
MainFolderViewItemIsSelected=false
NormalIconPath=
PutRepliesInSameFolder=false
ReadExpireAge=3
ReadExpireUnits=3
SystemLabel=
TotalMsgs=0
UnreadExpireAge=12
UnreadExpireUnits=0
UnreadIconPath=
UnreadMsgs=0
UseCustomIcons=false
UseDefaultIdentity=true
WhoField=

[Folder_local_root]
MainFolderViewItemDnDSortingKey=-1
MainFolderViewItemIsExpanded=false
MainFolderViewItemIsSelected=false

[Folder_search]
MainFolderViewItemDnDSortingKey=-1
MainFolderViewItemIsExpanded=false
MainFolderViewItemIsSelected=false

[General]
filters=0
first-start=false
folders[$e]=$HOME/.kde4/share/apps/kmail/mail
messagetags=3
popfilters=0
popshowDLmsgs=false
previous-version=1.12.0

[Geometry]
FavoriteFolderViewLayout=000000ff00000000000000010000000000000000000000000000000000000000040e00000003000000030000006400000002000000460000000100000046000000b400000004010000000000000000000000000000006400000014000000810000000000000004000000b40000000100000000000000000000000100000000000000000000000100000000000000000000000100000000
FolderTreeHeight=669
MainFolderViewLayout=000000ff00000000000000010000000000000000010000000000000000000000040e00000003000000030000006400000002000000460000000100000046000000b400000004010100000000000000000000000000006400000014000000810000000000000004000000b40000000100000000000000000000000100000000000000000000000100000000000000000000000100000000
ReaderWindowHeight=1056
SearchAndHeaderHeight=204
SearchAndHeaderWidth=1056

[HTML Settings]
AutomaticDetectionLanguage=1

[Internal]
MsgDictSizeHint=0
PreviousNewFeaturesMD5=1B2M2Y8AsgTpgAmY7PhCfg==

[Main Window]
State=AAAA/wAAAAD9AAAAAAAAArwAAAGYAAAABAAAAAQAAAAIAAAACPwAAAABAAAAAgAAAAEAAAAWAG0AYQBpAG4AVABvAG8AbABCAGEAcgEAAAAA/////wAAAAAAAAAA

[MainFolderView]
IconSize=16
SortingPolicy=0
ToolTipDisplayPolicy=0

[MessageListView::Aggregations]
Count=8
Set0=0000cafe00001001000000180031003200350031003200310038003800340039002d00310000003a0041006b007400750065006c006c006500200041006b0074006900760069007400e40074002c0020006700720075007000700069006500720074000002100044006900650073006500200041006e00730069006300680074002000760065007200770065006e00640065007400200069006e00740065006c006c006900670065006e0074006500200044006100740075006d007300620065007200650069006300680065003b00200064006900650020004e006100630068007200690063006800740065006e002000770065007200640065006e002000670072007500700070006900650072007400200061006e00670065007a0065006900670074002e00200042006500690073007000690065006c003a00200049006d00200044006100740075006d007300620065007200650069006300680020201e00480065007500740065201c002000660069006e00640065006e002000530069006500200061006c006c00650020004e006100630068007200690063006800740065006e002c002000640069006500200061006d00200068006500750074006900670065006e002000540061006700200061006e00670065006b006f006d006d0065006e002000730069006e0064002c00200073006f00770069006500200061006c006c00650020004700720075007000700065006e002c00200069006e002000640065006e0065006e002000680065007500740065002000650069006e00650020004e00610063006800720069006300680074002000650069006e0067006500670061006e00670065006e0020006900730074002e00001009000000020000000000000000000000010000000300000001000000040000000000000000000000000000babe
Set1=0000cafe00001001000000180031003200350031003200310038003800340039002d0032000000320041006b007400750065006c006c006500200041006b0074006900760069007400e40074002c00200066006c006100630068000001820044006900650073006500200041006e00730069006300680074002000760065007200770065006e00640065007400200069006e00740065006c006c006900670065006e0074006500200044006100740075006d007300620065007200650069006300680065002e00200044006900650020004e006100630068007200690063006800740065006e002000770065007200640065006e00200066006c00610063006800200061006e00670065007a0065006900670074002e00200042006500690073007000690065006c003a00200049006d00200044006100740075006d007300620065007200650069006300680020201e00480065007500740065201c002000660069006e00640065006e002000530069006500200061006c006c00650020004e006100630068007200690063006800740065006e002c002000640069006500200061006d00200068006500750074006900670065006e002000540061006700200061006e00670065006b006f006d006d0065006e002000730069006e0064002e00001009000000020000000000000000000000010000000000000001000000000000000000000000000000000000babe
Set2=0000cafe00001001000000180031003200350031003200310038003800340039002d00330000003e0041006b0074006900760069007400e400740020006e00610063006800200044006100740075006d002c0020006700720075007000700069006500720074000002120044006900650073006500200041006e00730069006300680074002000760065007200770065006e00640065007400200074006100670065007300620065007a006f00670065006e006500200044006100740075006d007300620065007200650069006300680065003b00200064006900650020004e006100630068007200690063006800740065006e002000770065007200640065006e002000670072007500700070006900650072007400200061006e00670065007a0065006900670074002e00200042006500690073007000690065006c003a00200049006d00200044006100740075006d007300620065007200650069006300680020201e00480065007500740065201c002000660069006e00640065006e002000530069006500200061006c006c00650020004e006100630068007200690063006800740065006e002c002000640069006500200061006d00200068006500750074006900670065006e002000540061006700200061006e00670065006b006f006d006d0065006e002000730069006e0064002c00200073006f00770069006500200061006c006c00650020004700720075007000700065006e002c00200069006e002000640065006e0065006e002000680065007500740065002000650069006e00650020004e00610063006800720069006300680074002000650069006e0067006500670061006e00670065006e0020006900730074002e00001009000000010000000000000000000000010000000300000001000000040000000000000000000000000000babe
Set3=0000cafe00001001000000180031003200350031003200310038003800340039002d0034000000360041006b0074006900760069007400e400740020006e00610063006800200044006100740075006d002c00200066006c006100630068000001840044006900650073006500200041006e00730069006300680074002000760065007200770065006e00640065007400200074006100670065007300620065007a006f00670065006e006500200044006100740075006d007300620065007200650069006300680065002e00200044006900650020004e006100630068007200690063006800740065006e002000770065007200640065006e00200066006c00610063006800200061006e00670065007a0065006900670074002e00200042006500690073007000690065006c003a00200049006d00200044006100740075006d007300620065007200650069006300680020201e00480065007500740065201c002000660069006e00640065006e002000530069006500200061006c006c00650020004e006100630068007200690063006800740065006e002c002000640069006500200061006d00200068006500750074006900670065006e002000540061006700200061006e00670065006b006f006d006d0065006e002000730069006e0064002e00001009000000010000000000000000000000010000000000000001000000000000000000000000000000000000babe
Set4=0000cafe00001001000000180031003200350031003200310038003800340039002d003500000032005300740061006e0064006100720064002d004e006100630068007200690063006800740065006e006c0069007300740065000000ba00440069006500730020006900730074002000650069006e0065002000650069006e00660061006300680065002c00200066006c00610063006800650020004e006100630068007200690063006800740065006e006c0069007300740065003a0020006b00650069006e006500200044006100740075006d00730062006500720065006900630068006500200075006e006400200073007400610072006b00650020004700720075007000700069006500720075006e0067002e00001009000000000000000000000000000000000000000300000000000000040000000000000000000000000000babe
Set5=0000cafe00001001000000180031003200350031003200310038003800340039002d0036000000280046006c006100630068006500200044006100740075006d00730061006e00730069006300680074000000ec00440069006500730020006900730074002000650069006e0065002000650069006e00660061006300680065002c00200061006c007400620065006b0061006e006e007400650020004e006100630068007200690063006800740065006e006c0069007300740065002c0020006e00610063006800200044006100740075006d00200073006f007200740069006500720074003a0020006b00650069006e006500200044006100740075006d00730062006500720065006900630068006500200075006e00640020006b00650069006e00650020004700720075007000700069006500720075006e0067002e00001009000000000000000000000000000000000000000000000000000000000000000000000000000000000000babe
Set6=0000cafe00001001000000180031003200350031003200310038003800340039002d0037000000320041006200730065006e006400650072002f0045006d0070006600e4006e006700650072002c00200066006c0061006300680000012e0044006900650073006500200041006e007300690063006800740020007a00650069006700740020004e006100630068007200690063006800740065006e00200067007200750070007000690065007200740020006e00610063006800200041006200730065006e00640065007200200062007a0077002e00200045006d0070006600e4006e00670065007200200061006e0020002800610062006800e4006e00670069006700200076006f006d0020004f00720064006e006500720074007900700029002e002000440069006500200065006e007400680061006c00740065006e0065006e0020004e006100630068007200690063006800740065006e002000770065007200640065006e0020006e00690063006800740020006700720075007000700069006500720074002e00001009000000030000000000000000000000000000000000000000000000000000000000000000000000010000babe
Set7=0000cafe00001001000000180031003200350031003200310038003800340039002d003800000022004400690073006b0075007300730069006f006e0073006c00650069007400650072000000ee0044006900650073006500200041006e007300690063006800740020006600610073007300740020004e006100630068007200690063006800740065006e00200069006e0020004400690073006b0075007300730069006f006e0073006700720075007000700065006e0020007a007500730061006d006d0065006e00200075006e0064002000670072007500700070006900650072007400200064006900650073006500200077006900650064006500720075006d0020006e006100630068002000640065006d0020004400690073006b0075007300730069006f006e0073006c00650069007400650072002e00001009000000030000000000000000000000000000000300000000000000000000000000000000000000010000babe

[MessageListView::Themes]
Count=3
Set0=0000cafe000010010000001a0031003200350031003200310038003800340039002d003100310000004200440065006b006f007200610074006900760020006d0069007400200061006e006b006c00690063006b0062006100720065006d0020005300740061007400750073000000d800450069006e002000640065006b006f0072006100740069007600650073002000440065007300690067006e002c002000770065006c00630068006500730020006d0065006800720065007200650020005a00650069006c0065006e00200075006e00640020004f0062006a0065006b00740065002000760065007200770065006e00640065007400200075006e006400200061006e006b006c00690063006b00620061007200650020005300740061007400750073002d00530079006d0062006f006c006500200065006e0074006800e4006c0074002e000010160000000100ffff00000000000000000000000700000000000000100000000200000012004e0061006300680072006900630068007401000000000000000001000000020152000f000000000000001600440065006a006100560075002000530061006e00734022000000000000ffffffff0001003210006401000000000000000000ffff00000000000000000015000a000000080000001600440065006a006100560075002000530061006e00734022000000000000ffffffff0001004b10006401000000000000000000ffff0000000000000000000000000000000200000001002d0001000000000000001600440065006a006100560075002000530061006e00734022000000000000ffffffff0001003210006401000000000000000000ffff00000000000000000000000600480007000000000000001600440065006a006100560075002000530061006e00734022000000000000ffffffff0001003210006401000000000000000000ffff0000000000000000004a0009000000010000001600440065006a006100560075002000530061006e00734022000000000000ffffffff0001003210006401000000000000000000ffff0000000000000000004a0008000000010000001600440065006a006100560075002000530061006e00734022000000000000ffffffff0001003210006401000000000000000000ffff0000000000000000004a0010000000010000001600440065006a006100560075002000530061006e00734022000000000000ffffffff0001003210006401000000000000000000ffff0000000000000000004a0011000000010000001600440065006a006100560075002000530061006e00734022000000000000ffffffff0001003210006401000000000000000000ffff000000000000000000480016000000010000001600440065006a006100560075002000530061006e00734022000000000000ffffffff0001003210006401000000000000000000ffff000000000000000000000001000d0003000000180000001600440065006a006100560075002000530061006e00734022000000000000ffffffff0001003211006401000000000000000000ffff000000000000000000000001001d0002000000180000001600440065006a006100560075002000530061006e00734022000000000000ffffffff0001003211006401000000000000000000ffff000000000000000000000001ffffffff0000000c005300740061007400750073010000000000000000000000000200000002014a000b000000020000001600440065006a006100560075002000530061006e00734022000000000000ffffffff0001003210006401000000000000000000ffff0000000000000000014a000c000000020000001600440065006a006100560075002000530061006e00734022000000000000ffffffff0001003210006401000000000000000000ffff00000000000000000000000000000002014a000d000000020000001600440065006a006100560075002000530061006e00734022000000000000ffffffff0001003210006401000000000000000000ffff0000000000000000014a000e000000020000001600440065006a006100560075002000530061006e00734022000000000000ffffffff0001003210006401000000000000000000ffff00000000000000000000000000000001ffffffff0000babe
Set1=0000cafe00001001000000180031003200350031003200310038003800340039002d003900000012004b006c00610073007300690073006300680000009c00450069006e002000650069006e006600610063006800650073002c0020007200fc0063006b007700e4007200740073002d006b006f006d00700061007400690062006c00650073002000440065007300690067006e002c002000770065006c00630068006500730020006e00750072002000650069006e00650020005a00650069006c0065002000760065007200770065006e006400650074002e000010160000000100ffff0000000000000000000000070000000000000010000000110000000e004200650074007200650066006601000000000600000001000000020152000f000000000000001600440065006a006100560075002000530061006e00734022000000000000ffffffff0001003210006401000000000000000000ffff00000000000000000015000a000000080000001600440065006a006100560075002000530061006e00734022000000000000ffffffff0001004b10006401000000000000000000ffff000000000000000000000000000000010000000500480015000000000000001600440065006a006100560075002000530061006e00734022000000000000ffffffff0001003210006401000000000000000000ffff0000000000000000004a0008000000010000001600440065006a006100560075002000530061006e00734022000000000000ffffffff0001003210006401000000000000000000ffff0000000000000000004a0011000000010000001600440065006a006100560075002000530061006e00734022000000000000ffffffff0001003210006401000000000000000000ffff0000000000000000004a0010000000010000001600440065006a006100560075002000530061006e00734022000000000000ffffffff0001003210006401000000000000000000ffff0000000000000000002d0001000000000000001600440065006a006100560075002000530061006e00734022000000000000ffffffff0001003210006401000000000000000000ffff00000000000000000000000000000001ffffffff000000240041006200730065006e006400650072002f0045006d0070006600e4006e006700650072010100000003000000000000000100000001000d0003000000000000001600440065006a006100560075002000530061006e00734022000000000000ffffffff0001003210006401000000000000000000ffff00000000000000000000000000000001ffffffff000000100041006200730065006e006400650072000000000004000000000000000100000001000d0004000000000000001600440065006a006100560075002000530061006e00734022000000000000ffffffff0001003210006401000000000000000000ffff00000000000000000000000000000000ffffffff000000120045006d0070006600e4006e006700650072000000000005000000000000000100000001000d0005000000000000001600440065006a006100560075002000530061006e00734022000000000000ffffffff0001003210006401000000000000000000ffff00000000000000000000000000000000ffffffff0000000a0044006100740075006d010000000001000000000000000100000001001d0002000000000000001600440065006a006100560075002000530061006e00734022000000000000ffffffff0001003210006401000000000000000000ffff00000000000000000000000000000001ffffffff0000001c004e006500750065007300740065007300200044006100740075006d0000000000020000000100000001001d0014000000000000001600440065006a006100560075002000530061006e00734022000000000000ffffffff0001003210006401000000000000000000ffff0000000000000000000000000000000100000001001d0014000000000000001600440065006a006100560075002000530061006e00734022000000000000ffffffff0001003210006401000000000000000000ffff00000000000000000000000000000000ffffffff0000000a0047007200f600df0065000000000007000000000000000100000001000d0006000000000000001600440065006a006100560075002000530061006e00734022000000000000ffffffff0001003210006401000000000000000000ffff00000000000000000000000000000000ffffffff0000000c0041006e00680061006e0067000000000000000000000000000100000001004a0008000000020000001600440065006a006100560075002000530061006e00734022000000000000ffffffff0001003210006401000000000000000000ffff00000000000000000000000000000000ffffffff0000001a004e00650075002f0055006e00670065006c006500730065006e00000000000900000000000000010000000100480007000000020000001600440065006a006100560075002000530061006e00734022000000000000ffffffff0001003210006401000000000000000000ffff00000000000000000000000000000000ffffffff00000016004200650061006e00740077006f0072007400650074000000000000000000000000000100000001004a0009000000020000001600440065006a006100560075002000530061006e00734022000000000000ffffffff0001003210006401000000000000000000ffff00000000000000000000000000000000ffffffff0000000e0057006900630068007400690067000000000000000000000000000100000001014a000c000000020000001600440065006a006100560075002000530061006e00734022000000000000ffffffff0001003210006401000000000000000000ffff00000000000000000000000000000000ffffffff0000000e0041007500660067006100620065000000000008000000000000000100000001014a000b000000020000001600440065006a006100560075002000530061006e00734022000000000000ffffffff0001003210006401000000000000000000ffff00000000000000000000000000000000ffffffff00000010005300700061006d002f00480061006d000000000000000000000000000100000001014a000d000000020000001600440065006a006100560075002000530061006e00734022000000000000ffffffff0001003210006401000000000000000000ffff00000000000000000000000000000000ffffffff0000002600dc00620065007200770061006300680074002f00490067006e006f00720069006500720074000000000000000000000000000100000001014a000e000000020000001600440065006a006100560075002000530061006e00734022000000000000ffffffff0001003210006401000000000000000000ffff00000000000000000000000000000000ffffffff0000001e005600650072007300630068006c00fc007300730065006c0075006e0067000000000000000000000000000100000001004a0010000000020000001600440065006a006100560075002000530061006e00734022000000000000ffffffff0001003210006401000000000000000000ffff00000000000000000000000000000000ffffffff00000010005300690067006e0061007400750072000000000000000000000000000100000001004a0011000000020000001600440065006a006100560075002000530061006e00734022000000000000ffffffff0001003210006401000000000000000000ffff00000000000000000000000000000000ffffffff00000020004d00610072006b0069006500720075006e00670073006c006900730074006500000000000000000000000000010000000100480016000000020000001600440065006a006100560075002000530061006e00734022000000000000ffffffff0001003210006401000000000000000000ffff00000000000000000000000000000000ffffffff0000babe
Set2=0000cafe000010010000001a0031003200350031003200310038003800340039002d003100300000001200440065006b006f007200610074006900760000008a00450069006e002000640065006b006f0072006100740069007600650073002000440065007300690067006e002c002000770065006c00630068006500730020006d0065006800720065007200650020005a00650069006c0065006e00200075006e00640020004f0062006a0065006b00740065002000760065007200770065006e006400650074002e000010160000000100ffff00000000000000000000000700000001000000100000000100000012004e0061006300680072006900630068007401000000000000000001000000020152000f000000000000001600440065006a006100560075002000530061006e00734022000000000000ffffffff0001003210006401000000000000000000ffff00000000000000000015000a000000080000001600440065006a006100560075002000530061006e00734022000000000000ffffffff0001004b10006401000000000000000000ffff0000000000000000000000000000000200000001002d0001000000000000001600440065006a006100560075002000530061006e00734022000000000000ffffffff0001003210006401000000000000000000ffff00000000000000000000000a00480007000000000000001600440065006a006100560075002000530061006e00734022000000000000ffffffff0001003210006401000000000000000000ffff0000000000000000004a0009000000010000001600440065006a006100560075002000530061006e00734022000000000000ffffffff0001003210006401000000000000000000ffff0000000000000000004a0008000000010000001600440065006a006100560075002000530061006e00734022000000000000ffffffff0001003210006401000000000000000000ffff0000000000000000004a0010000000010000001600440065006a006100560075002000530061006e00734022000000000000ffffffff0001003210006401000000000000000000ffff0000000000000000004a0011000000010000001600440065006a006100560075002000530061006e00734022000000000000ffffffff0001003210006401000000000000000000ffff000000000000000000480016000000010000001600440065006a006100560075002000530061006e00734022000000000000ffffffff0001003210006401000000000000000000ffff0000000000000000014a000b000000010000001600440065006a006100560075002000530061006e00734022000000000000ffffffff0001003210006401000000000000000000ffff0000000000000000014a000c000000010000001600440065006a006100560075002000530061006e00734022000000000000ffffffff0001003210006401000000000000000000ffff0000000000000000014a000d000000010000001600440065006a006100560075002000530061006e00734022000000000000ffffffff0001003210006401000000000000000000ffff0000000000000000014a000e000000010000001600440065006a006100560075002000530061006e00734022000000000000ffffffff0001003210006401000000000000000000ffff000000000000000000000001000d0003000000180000001600440065006a006100560075002000530061006e00734022000000000000ffffffff0001003211006401000000000000000000ffff000000000000000000000001001d0002000000180000001600440065006a006100560075002000530061006e00734022000000000000ffffffff0001003211006401000000000000000000ffff000000000000000000000001ffffffff0000babe

[MessageTag #0]
Label=tH2klekGro
Name=Freund
icon=feed-subscribe
text-color=0,0,255
toolbar=false

[MessageTag #1]
Label=qRmADCh4oY
Name=Geschäftlich
icon=feed-subscribe
text-color=0,128,0
toolbar=false

[MessageTag #2]
Label=L1Ye6IzkYK
Name=Später
icon=feed-subscribe
text-color=0,139,139
toolbar=false

[MimePartTree]
State=000000ff0000000000000001000000000000000401000000000000000000000000000000000000019000000004010100010000000000000000000000006400000018000000810000000000000001000001900000000400000000

[Reader]
attachment-strategy=smart
header-set-displayed=rich
header-style=fancy
showColorbar=true
useFixedFont=false

[Startup]
update-level=24

[sending mail]
Immediate=true
Quoted-Printable=true
